70
1 0 2
2 0 1
2 1 4
3 0 4
3 1 4
3 2 4
4 0 3
4 1 3
4 2 4
4 3 4
5 0 2
5 1 3
5 2 4
5 3 1
5 4 4
6 0 3
6 1 3
6 2 4
6 3 3
6 4 4
6 5 2
7 0 3
7 1 3
7 2 3
7 3 3
7 4 2
7 5 1
7 6 1
8 0 3
8 1 2
8 2 2
8 3 4
8 4 2
8 5 1
8 6 1
8 7 4
9 0 1
9 1 2
9 2 1
9 3 3
9 4 4
9 5 3
9 6 2
9 7 2
9 8 3
10 0 4
10 1 4
10 2 1
10 3 4
10 4 4
10 5 1
10 6 2
10 7 1
10 8 4
10 9 1
11 0 1
11 1 4
11 2 1
11 3 4
11 4 1
11 5 1
11 6 2
11 7 4
11 8 3
11 9 3
11 10 3
12 0 2
12 1 2
12 2 3
12 3 3
12 4 2
12 5 4
12 6 4
12 7 3
12 8 1
12 9 3
12 10 3
12 11 2
13 0 2
13 1 3
13 2 3
13 3 4
13 4 4
13 5 4
13 6 2
13 7 2
13 8 1
13 9 1
13 10 1
13 11 4
13 12 4
14 0 2
14 1 3
14 2 2
14 3 4
14 4 3
14 5 1
14 6 3
14 7 3
14 8 3
14 9 2
14 10 4
14 11 1
14 12 2
14 13 3
15 0 4
15 1 4
15 2 3
15 3 4
15 4 1
15 5 3
15 6 3
15 7 2
15 8 2
15 9 4
15 10 2
15 11 1
15 12 2
15 13 2
15 14 3
16 0 2
16 1 3
16 2 2
16 3 1
16 4 4
16 5 4
16 6 2
16 7 1
16 8 1
16 9 3
16 10 2
16 11 1
16 12 4
16 13 4
16 14 1
16 15 2
17 0 1
17 1 1
17 2 3
17 3 3
17 4 4
17 5 3
17 6 2
17 7 1
17 8 1
17 9 3
17 10 2
17 11 1
17 12 3
17 13 4
17 14 3
17 15 3
17 16 4
18 0 2
18 1 3
18 2 4
18 3 3
18 4 4
18 5 3
18 6 1
18 7 3
18 8 3
18 9 3
18 10 3
18 11 2
18 12 4
18 13 1
18 14 3
18 15 2
18 16 2
18 17 3
19 0 1
19 1 1
19 2 4
19 3 2
19 4 4
19 5 2
19 6 1
19 7 2
19 8 2
19 9 1
19 10 2
19 11 2
19 12 3
19 13 1
19 14 2
19 15 2
19 16 2
19 17 1
19 18 3
20 0 4
20 1 4
20 2 2
20 3 1
20 4 4
20 5 1
20 6 1
20 7 2
20 8 2
20 9 2
20 10 2
20 11 3
20 12 2
20 13 1
20 14 3
20 15 4
20 16 3
20 17 2
20 18 2
20 19 3
21 0 2
21 1 4
21 2 2
21 3 1
21 4 3
21 5 4
21 6 3
21 7 3
21 8 4
21 9 2
21 10 2
21 11 1
21 12 1
21 13 3
21 14 1
21 15 1
21 16 4
21 17 3
21 18 3
21 19 3
21 20 2
22 0 1
22 1 2
22 2 1
22 3 2
22 4 2
22 5 4
22 6 3
22 7 2
22 8 1
22 9 3
22 10 4
22 11 2
22 12 2
22 13 1
22 14 4
22 15 3
22 16 1
22 17 1
22 18 2
22 19 3
22 20 3
22 21 1
23 0 4
23 1 4
23 2 1
23 3 4
23 4 4
23 5 2
23 6 2
23 7 4
23 8 3
23 9 4
23 10 4
23 11 4
23 12 3
23 13 4
23 14 2
23 15 3
23 16 1
23 17 1
23 18 3
23 19 3
23 20 1
23 21 3
23 22 3
24 0 3
24 1 2
24 2 2
24 3 4
24 4 2
24 5 3
24 6 1
24 7 1
24 8 2
24 9 3
24 10 4
24 11 2
24 12 4
24 13 3
24 14 4
24 15 2
24 16 2
24 17 1
24 18 2
24 19 1
24 20 2
24 21 1
24 22 3
24 23 3
25 0 1
25 1 3
25 2 2
25 3 4
25 4 1
25 5 4
25 6 3
25 7 2
25 8 2
25 9 2
25 10 3
25 11 1
25 12 3
25 13 1
25 14 3
25 15 3
25 16 3
25 17 1
25 18 3
25 19 2
25 20 4
25 21 4
25 22 3
25 23 4
25 24 3
26 0 2
26 1 4
26 2 1
26 3 2
26 4 4
26 5 3
26 6 1
26 7 3
26 8 3
26 9 1
26 10 3
26 11 2
26 12 2
26 13 1
26 14 1
26 15 3
26 16 4
26 17 3
26 18 4
26 19 3
26 20 4
26 21 1
26 22 1
26 23 2
26 24 4
26 25 2
27 0 4
27 1 4
27 2 1
27 3 2
27 4 4
27 5 1
27 6 4
27 7 3
27 8 2
27 9 2
27 10 1
27 11 1
27 12 3
27 13 3
27 14 2
27 15 1
27 16 4
27 17 3
27 18 4
27 19 1
27 20 2
27 21 4
27 22 1
27 23 2
27 24 3
27 25 4
27 26 2
28 0 2
28 1 3
28 2 2
28 3 3
28 4 3
28 5 4
28 6 2
28 7 1
28 8 1
28 9 2
28 10 3
28 11 2
28 12 2
28 13 4
28 14 1
28 15 3
28 16 1
28 17 3
28 18 1
28 19 1
28 20 4
28 21 4
28 22 4
28 23 1
28 24 2
28 25 4
28 26 1
28 27 1
29 0 1
29 1 1
29 2 3
29 3 4
29 4 3
29 5 2
29 6 2
29 7 1
29 8 4
29 9 4
29 10 3
29 11 3
29 12 2
29 13 3
29 14 4
29 15 1
29 16 2
29 17 3
29 18 3
29 19 3
29 20 4
29 21 4
29 22 2
29 23 1
29 24 3
29 25 1
29 26 2
29 27 2
29 28 2
30 0 3
30 1 2
30 2 1
30 3 1
30 4 2
30 5 2
30 6 1
30 7 3
30 8 1
30 9 1
30 10 3
30 11 4
30 12 3
30 13 4
30 14 3
30 15 4
30 16 1
30 17 4
30 18 1
30 19 3
30 20 2
30 21 3
30 22 4
30 23 1
30 24 1
30 25 4
30 26 2
30 27 3
30 28 4
30 29 1
31 0 1
31 1 3
31 2 3
31 3 1
31 4 1
31 5 2
31 6 2
31 7 2
31 8 1
31 9 3
31 10 1
31 11 4
31 12 3
31 13 3
31 14 1
31 15 2
31 16 3
31 17 4
31 18 4
31 19 3
31 20 3
31 21 3
31 22 4
31 23 1
31 24 3
31 25 2
31 26 2
31 27 4
31 28 4
31 29 2
31 30 4
32 0 3
32 1 3
32 2 1
32 3 3
32 4 4
32 5 1
32 6 3
32 7 3
32 8 3
32 9 1
32 10 3
32 11 1
32 12 3
32 13 3
32 14 3
32 15 2
32 16 2
32 17 2
32 18 1
32 19 4
32 20 4
32 21 2
32 22 2
32 23 1
32 24 3
32 25 3
32 26 4
32 27 4
32 28 2
32 29 2
32 30 4
32 31 2
33 0 4
33 1 2
33 2 2
33 3 3
33 4 3
33 5 3
33 6 2
33 7 2
33 8 1
33 9 4
33 10 3
33 11 3
33 12 3
33 13 1
33 14 4
33 15 1
33 16 2
33 17 2
33 18 3
33 19 2
33 20 4
33 21 4
33 22 2
33 23 4
33 24 1
33 25 3
33 26 1
33 27 3
33 28 4
33 29 1
33 30 4
33 31 2
33 32 4
34 0 1
34 1 4
34 2 1
34 3 1
34 4 1
34 5 3
34 6 1
34 7 1
34 8 3
34 9 1
34 10 1
34 11 4
34 12 4
34 13 2
34 14 4
34 15 2
34 16 4
34 17 1
34 18 2
34 19 3
34 20 4
34 21 1
34 22 3
34 23 4
34 24 3
34 25 2
34 26 4
34 27 2
34 28 3
34 29 3
34 30 3
34 31 3
34 32 3
34 33 2
35 0 1
35 1 4
35 2 1
35 3 1
35 4 2
35 5 1
35 6 3
35 7 1
35 8 4
35 9 3
35 10 3
35 11 1
35 12 1
35 13 2
35 14 1
35 15 4
35 16 2
35 17 2
35 18 1
35 19 2
35 20 2
35 21 3
35 22 1
35 23 2
35 24 1
35 25 1
35 26 2
35 27 4
35 28 1
35 29 1
35 30 3
35 31 1
35 32 3
35 33 3
35 34 4
36 0 4
36 1 2
36 2 2
36 3 3
36 4 2
36 5 3
36 6 3
36 7 4
36 8 2
36 9 3
36 10 4
36 11 3
36 12 3
36 13 4
36 14 3
36 15 3
36 16 4
36 17 2
36 18 2
36 19 4
36 20 1
36 21 4
36 22 2
36 23 4
36 24 1
36 25 1
36 26 3
36 27 1
36 28 1
36 29 2
36 30 2
36 31 1
36 32 4
36 33 2
36 34 3
36 35 3
37 0 3
37 1 2
37 2 4
37 3 4
37 4 4
37 5 4
37 6 2
37 7 1
37 8 2
37 9 1
37 10 4
37 11 4
37 12 4
37 13 1
37 14 2
37 15 1
37 16 2
37 17 1
37 18 3
37 19 1
37 20 4
37 21 2
37 22 4
37 23 2
37 24 2
37 25 1
37 26 2
37 27 4
37 28 1
37 29 1
37 30 3
37 31 1
37 32 3
37 33 3
37 34 1
37 35 1
37 36 4
38 0 1
38 1 2
38 2 1
38 3 1
38 4 3
38 5 4
38 6 4
38 7 4
38 8 2
38 9 3
38 10 2
38 11 4
38 12 1
38 13 1
38 14 3
38 15 4
38 16 2
38 17 2
38 18 2
38 19 3
38 20 4
38 21 2
38 22 1
38 23 1
38 24 1
38 25 3
38 26 3
38 27 3
38 28 2
38 29 2
38 30 2
38 31 2
38 32 2
38 33 2
38 34 1
38 35 2
38 36 2
38 37 3
39 0 1
39 1 4
39 2 4
39 3 1
39 4 4
39 5 4
39 6 4
39 7 4
39 8 4
39 9 3
39 10 4
39 11 4
39 12 3
39 13 1
39 14 3
39 15 3
39 16 4
39 17 2
39 18 2
39 19 2
39 20 2
39 21 1
39 22 4
39 23 3
39 24 1
39 25 3
39 26 2
39 27 1
39 28 3
39 29 3
39 30 1
39 31 1
39 32 3
39 33 4
39 34 1
39 35 3
39 36 3
39 37 2
39 38 3
40 0 1
40 1 3
40 2 3
40 3 2
40 4 2
40 5 2
40 6 3
40 7 4
40 8 2
40 9 4
40 10 4
40 11 2
40 12 2
40 13 1
40 14 1
40 15 4
40 16 1
40 17 2
40 18 3
40 19 4
40 20 2
40 21 3
40 22 4
40 23 2
40 24 3
40 25 1
40 26 3
40 27 1
40 28 2
40 29 4
40 30 3
40 31 1
40 32 2
40 33 4
40 34 3
40 35 2
40 36 3
40 37 4
40 38 4
40 39 4
41 0 2
41 1 4
41 2 1
41 3 2
41 4 2
41 5 3
41 6 2
41 7 3
41 8 4
41 9 3
41 10 2
41 11 4
41 12 4
41 13 4
41 14 2
41 15 1
41 16 2
41 17 3
41 18 4
41 19 4
41 20 2
41 21 4
41 22 1
41 23 4
41 24 4
41 25 1
41 26 4
41 27 4
41 28 3
41 29 3
41 30 3
41 31 4
41 32 2
41 33 4
41 34 4
41 35 3
41 36 1
41 37 3
41 38 2
41 39 3
41 40 2
42 0 3
42 1 4
42 2 2
42 3 3
42 4 3
42 5 3
42 6 2
42 7 1
42 8 4
42 9 3
42 10 4
42 11 2
42 12 3
42 13 1
42 14 2
42 15 1
42 16 3
42 17 1
42 18 1
42 19 2
42 20 1
42 21 3
42 22 3
42 23 3
42 24 3
42 25 4
42 26 1
42 27 4
42 28 3
42 29 3
42 30 2
42 31 2
42 32 1
42 33 1
42 34 1
42 35 4
42 36 4
42 37 4
42 38 1
42 39 4
42 40 1
42 41 2
43 0 1
43 1 1
43 2 2
43 3 1
43 4 1
43 5 3
43 6 2
43 7 3
43 8 3
43 9 3
43 10 1
43 11 1
43 12 3
43 13 3
43 14 2
43 15 4
43 16 2
43 17 2
43 18 2
43 19 1
43 20 2
43 21 1
43 22 4
43 23 4
43 24 4
43 25 1
43 26 4
43 27 3
43 28 4
43 29 4
43 30 1
43 31 4
43 32 2
43 33 3
43 34 3
43 35 4
43 36 1
43 37 2
43 38 1
43 39 3
43 40 2
43 41 2
43 42 2
44 0 4
44 1 2
44 2 1
44 3 1
44 4 2
44 5 4
44 6 4
44 7 2
44 8 2
44 9 2
44 10 2
44 11 3
44 12 1
44 13 1
44 14 4
44 15 2
44 16 2
44 17 1
44 18 3
44 19 4
44 20 3
44 21 2
44 22 1
44 23 4
44 24 1
44 25 2
44 26 2
44 27 4
44 28 3
44 29 2
44 30 3
44 31 2
44 32 2
44 33 3
44 34 2
44 35 4
44 36 2
44 37 4
44 38 1
44 39 3
44 40 1
44 41 1
44 42 1
44 43 4
45 0 3
45 1 1
45 2 4
45 3 2
45 4 1
45 5 2
45 6 1
45 7 1
45 8 2
45 9 2
45 10 3
45 11 3
45 12 1
45 13 3
45 14 4
45 15 3
45 16 1
45 17 4
45 18 3
45 19 1
45 20 1
45 21 1
45 22 1
45 23 2
45 24 4
45 25 1
45 26 3
45 27 2
45 28 3
45 29 3
45 30 1
45 31 2
45 32 4
45 33 2
45 34 1
45 35 3
45 36 4
45 37 2
45 38 3
45 39 1
45 40 1
45 41 3
45 42 2
45 43 1
45 44 4
46 0 4
46 1 1
46 2 4
46 3 2
46 4 3
46 5 3
46 6 4
46 7 3
46 8 3
46 9 1
46 10 3
46 11 1
46 12 4
46 13 4
46 14 4
46 15 2
46 16 4
46 17 1
46 18 4
46 19 3
46 20 4
46 21 2
46 22 3
46 23 3
46 24 4
46 25 4
46 26 1
46 27 1
46 28 1
46 29 3
46 30 3
46 31 4
46 32 3
46 33 3
46 34 1
46 35 1
46 36 3
46 37 2
46 38 3
46 39 1
46 40 4
46 41 4
46 42 2
46 43 3
46 44 4
46 45 1
47 0 3
47 1 2
47 2 2
47 3 1
47 4 2
47 5 4
47 6 2
47 7 2
47 8 1
47 9 1
47 10 4
47 11 2
47 12 2
47 13 1
47 14 3
47 15 4
47 16 3
47 17 1
47 18 2
47 19 3
47 20 4
47 21 4
47 22 4
47 23 1
47 24 3
47 25 3
47 26 2
47 27 3
47 28 1
47 29 2
47 30 4
47 31 4
47 32 3
47 33 2
47 34 2
47 35 4
47 36 1
47 37 2
47 38 2
47 39 4
47 40 3
47 41 4
47 42 4
47 43 1
47 44 2
47 45 2
47 46 2
48 0 1
48 1 4
48 2 1
48 3 4
48 4 2
48 5 4
48 6 3
48 7 4
48 8 3
48 9 4
48 10 1
48 11 1
48 12 4
48 13 2
48 14 3
48 15 2
48 16 1
48 17 1
48 18 3
48 19 2
48 20 4
48 21 4
48 22 2
48 23 1
48 24 2
48 25 1
48 26 2
48 27 4
48 28 2
48 29 4
48 30 3
48 31 2
48 32 1
48 33 4
48 34 4
48 35 1
48 36 2
48 37 1
48 38 3
48 39 3
48 40 4
48 41 2
48 42 1
48 43 4
48 44 1
48 45 3
48 46 2
48 47 4
49 0 2
49 1 3
49 2 3
49 3 4
49 4 1
49 5 2
49 6 3
49 7 1
49 8 3
49 9 4
49 10 4
49 11 1
49 12 1
49 13 1
49 14 2
49 15 3
49 16 4
49 17 1
49 18 2
49 19 1
49 20 3
49 21 3
49 22 4
49 23 3
49 24 4
49 25 4
49 26 2
49 27 1
49 28 4
49 29 2
49 30 2
49 31 2
49 32 3
49 33 2
49 34 2
49 35 4
49 36 4
49 37 2
49 38 1
49 39 4
49 40 4
49 41 2
49 42 1
49 43 1
49 44 1
49 45 4
49 46 1
49 47 1
49 48 4
50 0 2
50 1 1
50 2 2
50 3 3
50 4 3
50 5 1
50 6 2
50 7 2
50 8 4
50 9 2
50 10 4
50 11 4
50 12 2
50 13 1
50 14 2
50 15 4
50 16 1
50 17 4
50 18 3
50 19 3
50 20 1
50 21 4
50 22 2
50 23 4
50 24 3
50 25 2
50 26 1
50 27 4
50 28 3
50 29 1
50 30 2
50 31 4
50 32 4
50 33 1
50 34 1
50 35 1
50 36 2
50 37 1
50 38 1
50 39 2
50 40 1
50 41 4
50 42 2
50 43 2
50 44 4
50 45 2
50 46 1
50 47 3
50 48 3
50 49 2
51 0 3
51 1 3
51 2 4
51 3 4
51 4 4
51 5 3
51 6 4
51 7 4
51 8 1
51 9 4
51 10 1
51 11 3
51 12 4
51 13 3
51 14 3
51 15 2
51 16 2
51 17 4
51 18 4
51 19 2
51 20 4
51 21 1
51 22 1
51 23 4
51 24 1
51 25 3
51 26 1
51 27 1
51 28 3
51 29 3
51 30 2
51 31 1
51 32 3
51 33 3
51 34 2
51 35 4
51 36 4
51 37 2
51 38 1
51 39 1
51 40 3
51 41 3
51 42 3
51 43 3
51 44 3
51 45 3
51 46 1
51 47 1
51 48 3
51 49 1
51 50 4
52 0 3
52 1 4
52 2 4
52 3 4
52 4 2
52 5 1
52 6 2
52 7 1
52 8 3
52 9 1
52 10 2
52 11 3
52 12 3
52 13 3
52 14 1
52 15 3
52 16 1
52 17 3
52 18 1
52 19 1
52 20 1
52 21 4
52 22 4
52 23 3
52 24 3
52 25 2
52 26 2
52 27 1
52 28 1
52 29 3
52 30 3
52 31 4
52 32 3
52 33 4
52 34 3
52 35 2
52 36 2
52 37 2
52 38 4
52 39 3
52 40 4
52 41 1
52 42 2
52 43 3
52 44 4
52 45 2
52 46 3
52 47 1
52 48 1
52 49 3
52 50 4
52 51 3
53 0 4
53 1 4
53 2 2
53 3 1
53 4 2
53 5 1
53 6 4
53 7 1
53 8 1
53 9 4
53 10 2
53 11 1
53 12 4
53 13 1
53 14 4
53 15 2
53 16 1
53 17 2
53 18 2
53 19 1
53 20 3
53 21 1
53 22 2
53 23 4
53 24 1
53 25 1
53 26 4
53 27 2
53 28 1
53 29 4
53 30 3
53 31 3
53 32 1
53 33 2
53 34 4
53 35 2
53 36 1
53 37 1
53 38 1
53 39 4
53 40 4
53 41 1
53 42 4
53 43 3
53 44 1
53 45 2
53 46 4
53 47 2
53 48 1
53 49 2
53 50 3
53 51 3
53 52 4
54 0 1
54 1 2
54 2 4
54 3 3
54 4 1
54 5 2
54 6 2
54 7 2
54 8 1
54 9 3
54 10 3
54 11 2
54 12 1
54 13 3
54 14 4
54 15 1
54 16 4
54 17 4
54 18 3
54 19 1
54 20 4
54 21 1
54 22 3
54 23 4
54 24 4
54 25 2
54 26 1
54 27 4
54 28 1
54 29 1
54 30 4
54 31 1
54 32 3
54 33 4
54 34 4
54 35 4
54 36 1
54 37 3
54 38 3
54 39 2
54 40 4
54 41 3
54 42 4
54 43 1
54 44 2
54 45 3
54 46 3
54 47 1
54 48 3
54 49 2
54 50 3
54 51 2
54 52 1
54 53 3
55 0 3
55 1 1
55 2 1
55 3 1
55 4 3
55 5 3
55 6 1
55 7 2
55 8 4
55 9 3
55 10 2
55 11 2
55 12 3
55 13 4
55 14 3
55 15 2
55 16 1
55 17 1
55 18 2
55 19 4
55 20 4
55 21 2
55 22 3
55 23 1
55 24 3
55 25 3
55 26 2
55 27 4
55 28 1
55 29 1
55 30 3
55 31 1
55 32 4
55 33 4
55 34 1
55 35 2
55 36 3
55 37 3
55 38 4
55 39 1
55 40 1
55 41 3
55 42 4
55 43 2
55 44 1
55 45 2
55 46 2
55 47 3
55 48 2
55 49 1
55 50 1
55 51 2
55 52 1
55 53 1
55 54 3
56 0 2
56 1 2
56 2 4
56 3 4
56 4 1
56 5 1
56 6 3
56 7 3
56 8 2
56 9 4
56 10 4
56 11 3
56 12 1
56 13 3
56 14 3
56 15 1
56 16 3
56 17 2
56 18 4
56 19 2
56 20 4
56 21 1
56 22 4
56 23 3
56 24 1
56 25 2
56 26 2
56 27 1
56 28 4
56 29 1
56 30 4
56 31 3
56 32 3
56 33 1
56 34 2
56 35 4
56 36 4
56 37 4
56 38 4
56 39 4
56 40 2
56 41 4
56 42 2
56 43 1
56 44 2
56 45 3
56 46 4
56 47 3
56 48 1
56 49 1
56 50 3
56 51 1
56 52 4
56 53 2
56 54 2
56 55 2
57 0 1
57 1 3
57 2 3
57 3 4
57 4 3
57 5 4
57 6 4
57 7 2
57 8 4
57 9 3
57 10 3
57 11 4
57 12 2
57 13 1
57 14 4
57 15 3
57 16 2
57 17 1
57 18 2
57 19 2
57 20 4
57 21 1
57 22 2
57 23 3
57 24 4
57 25 4
57 26 3
57 27 2
57 28 3
57 29 4
57 30 4
57 31 3
57 32 4
57 33 3
57 34 2
57 35 4
57 36 3
57 37 2
57 38 3
57 39 1
57 40 4
57 41 4
57 42 1
57 43 3
57 44 3
57 45 1
57 46 3
57 47 4
57 48 4
57 49 3
57 50 4
57 51 2
57 52 2
57 53 4
57 54 3
57 55 2
57 56 4
58 0 1
58 1 3
58 2 4
58 3 4
58 4 1
58 5 4
58 6 2
58 7 3
58 8 3
58 9 4
58 10 4
58 11 2
58 12 1
58 13 1
58 14 2
58 15 1
58 16 2
58 17 2
58 18 2
58 19 3
58 20 3
58 21 2
58 22 4
58 23 4
58 24 2
58 25 2
58 26 1
58 27 4
58 28 2
58 29 1
58 30 1
58 31 3
58 32 4
58 33 3
58 34 3
58 35 4
58 36 1
58 37 1
58 38 2
58 39 1
58 40 1
58 41 2
58 42 3
58 43 4
58 44 2
58 45 2
58 46 3
58 47 4
58 48 2
58 49 4
58 50 3
58 51 1
58 52 1
58 53 4
58 54 4
58 55 2
58 56 1
58 57 4
59 0 1
59 1 2
59 2 1
59 3 2
59 4 3
59 5 2
59 6 1
59 7 4
59 8 4
59 9 4
59 10 3
59 11 3
59 12 3
59 13 2
59 14 1
59 15 2
59 16 2
59 17 4
59 18 4
59 19 4
59 20 1
59 21 2
59 22 4
59 23 3
59 24 4
59 25 3
59 26 3
59 27 1
59 28 1
59 29 1
59 30 4
59 31 2
59 32 4
59 33 3
59 34 2
59 35 2
59 36 1
59 37 2
59 38 3
59 39 1
59 40 2
59 41 2
59 42 2
59 43 4
59 44 3
59 45 3
59 46 3
59 47 1
59 48 2
59 49 4
59 50 2
59 51 3
59 52 2
59 53 1
59 54 2
59 55 2
59 56 2
59 57 3
59 58 1
60 0 2
60 1 1
60 2 1
60 3 1
60 4 3
60 5 1
60 6 3
60 7 4
60 8 4
60 9 3
60 10 4
60 11 1
60 12 2
60 13 1
60 14 1
60 15 4
60 16 3
60 17 2
60 18 1
60 19 2
60 20 1
60 21 3
60 22 1
60 23 4
60 24 1
60 25 2
60 26 2
60 27 4
60 28 2
60 29 3
60 30 4
60 31 1
60 32 1
60 33 1
60 34 3
60 35 4
60 36 3
60 37 2
60 38 4
60 39 3
60 40 4
60 41 1
60 42 4
60 43 1
60 44 3
60 45 2
60 46 4
60 47 4
60 48 3
60 49 1
60 50 3
60 51 1
60 52 4
60 53 3
60 54 4
60 55 4
60 56 2
60 57 2
60 58 3
60 59 1
61 0 4
61 1 3
61 2 4
61 3 1
61 4 2
61 5 1
61 6 3
61 7 2
61 8 4
61 9 3
61 10 4
61 11 4
61 12 3
61 13 3
61 14 1
61 15 3
61 16 1
61 17 2
61 18 2
61 19 1
61 20 1
61 21 2
61 22 4
61 23 2
61 24 1
61 25 1
61 26 2
61 27 1
61 28 3
61 29 3
61 30 1
61 31 1
61 32 2
61 33 1
61 34 2
61 35 3
61 36 1
61 37 1
61 38 2
61 39 3
61 40 2
61 41 4
61 42 1
61 43 2
61 44 2
61 45 3
61 46 1
61 47 3
61 48 1
61 49 3
61 50 4
61 51 4
61 52 3
61 53 2
61 54 1
61 55 3
61 56 3
61 57 2
61 58 1
61 59 4
61 60 3
62 0 3
62 1 1
62 2 1
62 3 3
62 4 3
62 5 2
62 6 4
62 7 3
62 8 3
62 9 1
62 10 1
62 11 4
62 12 2
62 13 1
62 14 2
62 15 2
62 16 1
62 17 3
62 18 1
62 19 2
62 20 3
62 21 2
62 22 1
62 23 1
62 24 3
62 25 3
62 26 2
62 27 3
62 28 3
62 29 3
62 30 2
62 31 2
62 32 4
62 33 4
62 34 1
62 35 4
62 36 1
62 37 2
62 38 3
62 39 4
62 40 1
62 41 4
62 42 2
62 43 2
62 44 1
62 45 2
62 46 1
62 47 4
62 48 3
62 49 1
62 50 2
62 51 4
62 52 4
62 53 2
62 54 1
62 55 4
62 56 3
62 57 3
62 58 1
62 59 4
62 60 2
62 61 1
63 0 4
63 1 3
63 2 4
63 3 3
63 4 1
63 5 1
63 6 2
63 7 1
63 8 4
63 9 4
63 10 4
63 11 4
63 12 2
63 13 4
63 14 1
63 15 3
63 16 4
63 17 2
63 18 3
63 19 4
63 20 3
63 21 3
63 22 4
63 23 1
63 24 4
63 25 4
63 26 4
63 27 4
63 28 1
63 29 4
63 30 1
63 31 1
63 32 3
63 33 3
63 34 3
63 35 4
63 36 1
63 37 2
63 38 1
63 39 4
63 40 2
63 41 2
63 42 3
63 43 4
63 44 3
63 45 1
63 46 4
63 47 1
63 48 3
63 49 2
63 50 3
63 51 3
63 52 4
63 53 2
63 54 4
63 55 3
63 56 2
63 57 3
63 58 3
63 59 2
63 60 1
63 61 3
63 62 2
64 0 1
64 1 4
64 2 1
64 3 2
64 4 1
64 5 2
64 6 2
64 7 4
64 8 2
64 9 4
64 10 2
64 11 1
64 12 2
64 13 2
64 14 1
64 15 1
64 16 3
64 17 3
64 18 1
64 19 4
64 20 1
64 21 4
64 22 4
64 23 2
64 24 4
64 25 4
64 26 2
64 27 3
64 28 3
64 29 1
64 30 3
64 31 3
64 32 2
64 33 3
64 34 1
64 35 1
64 36 1
64 37 2
64 38 1
64 39 1
64 40 2
64 41 3
64 42 1
64 43 4
64 44 4
64 45 3
64 46 3
64 47 3
64 48 3
64 49 4
64 50 4
64 51 3
64 52 1
64 53 4
64 54 1
64 55 3
64 56 2
64 57 3
64 58 3
64 59 4
64 60 3
64 61 3
64 62 2
64 63 2
65 0 2
65 1 1
65 2 3
65 3 1
65 4 2
65 5 4
65 6 4
65 7 2
65 8 3
65 9 4
65 10 2
65 11 1
65 12 4
65 13 4
65 14 1
65 15 4
65 16 2
65 17 3
65 18 1
65 19 1
65 20 1
65 21 2
65 22 1
65 23 3
65 24 2
65 25 3
65 26 2
65 27 1
65 28 1
65 29 2
65 30 4
65 31 1
65 32 3
65 33 1
65 34 1
65 35 1
65 36 2
65 37 4
65 38 3
65 39 1
65 40 4
65 41 2
65 42 4
65 43 1
65 44 1
65 45 2
65 46 4
65 47 2
65 48 4
65 49 1
65 50 2
65 51 2
65 52 3
65 53 3
65 54 2
65 55 3
65 56 3
65 57 1
65 58 3
65 59 3
65 60 1
65 61 3
65 62 1
65 63 1
65 64 4
66 0 2
66 1 4
66 2 4
66 3 1
66 4 4
66 5 4
66 6 2
66 7 2
66 8 3
66 9 3
66 10 3
66 11 3
66 12 2
66 13 3
66 14 3
66 15 4
66 16 2
66 17 4
66 18 4
66 19 3
66 20 3
66 21 3
66 22 1
66 23 1
66 24 3
66 25 1
66 26 4
66 27 4
66 28 1
66 29 4
66 30 1
66 31 4
66 32 2
66 33 4
66 34 2
66 35 3
66 36 1
66 37 3
66 38 1
66 39 2
66 40 1
66 41 4
66 42 3
66 43 3
66 44 1
66 45 3
66 46 2
66 47 1
66 48 1
66 49 4
66 50 4
66 51 3
66 52 4
66 53 2
66 54 4
66 55 1
66 56 4
66 57 3
66 58 3
66 59 4
66 60 4
66 61 4
66 62 3
66 63 3
66 64 1
66 65 2
67 0 2
67 1 4
67 2 3
67 3 4
67 4 1
67 5 1
67 6 1
67 7 3
67 8 4
67 9 4
67 10 2
67 11 2
67 12 2
67 13 3
67 14 2
67 15 1
67 16 1
67 17 2
67 18 1
67 19 4
67 20 3
67 21 1
67 22 1
67 23 2
67 24 3
67 25 2
67 26 2
67 27 2
67 28 3
67 29 1
67 30 1
67 31 4
67 32 1
67 33 1
67 34 4
67 35 1
67 36 3
67 37 3
67 38 2
67 39 3
67 40 3
67 41 2
67 42 3
67 43 3
67 44 2
67 45 3
67 46 2
67 47 2
67 48 1
67 49 2
67 50 4
67 51 3
67 52 2
67 53 3
67 54 3
67 55 3
67 56 4
67 57 4
67 58 4
67 59 3
67 60 2
67 61 2
67 62 1
67 63 4
67 64 2
67 65 2
67 66 3
68 0 3
68 1 3
68 2 2
68 3 1
68 4 4
68 5 2
68 6 4
68 7 4
68 8 3
68 9 3
68 10 1
68 11 1
68 12 3
68 13 1
68 14 1
68 15 4
68 16 2
68 17 1
68 18 2
68 19 2
68 20 2
68 21 1
68 22 2
68 23 2
68 24 2
68 25 3
68 26 2
68 27 4
68 28 4
68 29 2
68 30 3
68 31 2
68 32 3
68 33 4
68 34 1
68 35 4
68 36 2
68 37 4
68 38 4
68 39 4
68 40 4
68 41 3
68 42 2
68 43 4
68 44 3
68 45 2
68 46 1
68 47 3
68 48 4
68 49 1
68 50 2
68 51 1
68 52 1
68 53 2
68 54 4
68 55 3
68 56 2
68 57 3
68 58 3
68 59 2
68 60 2
68 61 4
68 62 1
68 63 2
68 64 2
68 65 1
68 66 2
68 67 1
69 0 4
69 1 4
69 2 1
69 3 2
69 4 1
69 5 2
69 6 3
69 7 1
69 8 2
69 9 4
69 10 4
69 11 2
69 12 3
69 13 1
69 14 2
69 15 1
69 16 4
69 17 3
69 18 2
69 19 2
69 20 4
69 21 2
69 22 1
69 23 4
69 24 1
69 25 1
69 26 3
69 27 4
69 28 1
69 29 3
69 30 2
69 31 4
69 32 4
69 33 2
69 34 3
69 35 4
69 36 1
69 37 1
69 38 1
69 39 1
69 40 2
69 41 4
69 42 3
69 43 1
69 44 2
69 45 4
69 46 3
69 47 4
69 48 4
69 49 1
69 50 1
69 51 1
69 52 1
69 53 1
69 54 1
69 55 1
69 56 1
69 57 1
69 58 1
69 59 3
69 60 4
69 61 1
69 62 4
69 63 2
69 64 4
69 65 3
69 66 1
69 67 1
69 68 1
